20
8	7	180	62	1
19	60	133	82	7
23	161	44	11	80
30	43	389	69	49
28	124	101	45	20
30	177	166	15	51
3	72	222	70	50
14	154	146	74	7
30	133	37	46	40
20	244	41	73	79
7	226	385	35	57
5	44	91	70	48
26	272	88	50	11
3	178	271	96	70
23	189	379	3	11
23	249	7	8	16
7	268	288	63	9
2	60	357	45	32
14	47	77	96	52
2	274	352	68	82
